DIMENSION :17
NODE_COORD_SECTION
1 51.85628589218541 -77.7201049110394
2 83.82185178298778 49.889816114288124
3 -39.08071745960158 64.72765789005709
4 -88.91569608647107 31.0766741932421
5 -44.3621749691518 9.330033751904864
6 67.707227012781 -51.69942629622697
7 36.7859658908292 -70.0442430163112
8 -9.966277344946775 21.434428010485746
9 63.50125456159111 -29.928493932449783
10 -66.86958513085514 -6.8545073231167635
11 -74.14255575532593 36.46138580097724
12 20.78751351310774 66.60188668860206
13 -79.81224352507724 -76.73794200008888
14 -13.433979500222051 83.69058595586822
15 87.58966316409766 -85.31621597020664
16 12.904900402664737 33.23060842310096
17 -10.481394921764561 29.826847077797083
EOF
